branch-and-cut/resultados/I080/i080-041.sol
1276
7
1 73
4 15
73 3
15 6
73 2
73 15
73 5
